; Options: -q --produce-models --incremental --print-success --lang smt2.6
(declare-fun start!62464 () Bool)

(assert start!62464)

(declare-fun b!701591 () Bool)

(declare-fun res!465595 () Bool)

(declare-fun e!397325 () Bool)

(assert (=> b!701591 (=> (not res!465595) (not e!397325))))

(declare-datatypes ((List!13296 0))(
  ( (Nil!13293) (Cons!13292 (h!14337 (_ BitVec 64)) (t!19586 List!13296)) )
))
(declare-fun newAcc!49 () List!13296)

(declare-fun contains!3839 (List!13296 (_ BitVec 64)) Bool)

(assert (=> b!701591 (= res!465595 (not (contains!3839 newAcc!49 #b0000000000000000000000000000000000000000000000000000000000000000)))))

(declare-fun b!701592 () Bool)

(declare-fun e!397327 () Bool)

(assert (=> b!701592 (= e!397327 false)))

(declare-fun lt!317575 () Bool)

(declare-fun lt!317577 () List!13296)

(assert (=> b!701592 (= lt!317575 (contains!3839 lt!317577 #b1000000000000000000000000000000000000000000000000000000000000000))))

(declare-fun b!701593 () Bool)

(declare-fun res!465592 () Bool)

(assert (=> b!701593 (=> (not res!465592) (not e!397327))))

(declare-fun k!2824 () (_ BitVec 64))

(assert (=> b!701593 (= res!465592 (contains!3839 lt!317577 k!2824))))

(declare-fun b!701594 () Bool)

(declare-fun res!465589 () Bool)

(assert (=> b!701594 (=> (not res!465589) (not e!397325))))

(declare-fun acc!652 () List!13296)

(assert (=> b!701594 (= res!465589 (not (contains!3839 acc!652 #b1000000000000000000000000000000000000000000000000000000000000000)))))

(declare-fun b!701595 () Bool)

(declare-fun res!465598 () Bool)

(assert (=> b!701595 (=> (not res!465598) (not e!397325))))

(declare-datatypes ((array!40099 0))(
  ( (array!40100 (arr!19202 (Array (_ BitVec 32) (_ BitVec 64))) (size!19585 (_ BitVec 32))) )
))
(declare-fun a!3591 () array!40099)

(declare-fun from!2969 () (_ BitVec 32))

(declare-fun validKeyInArray!0 ((_ BitVec 64)) Bool)

(assert (=> b!701595 (= res!465598 (validKeyInArray!0 (select (arr!19202 a!3591) from!2969)))))

(declare-fun b!701596 () Bool)

(declare-fun res!465600 () Bool)

(assert (=> b!701596 (=> (not res!465600) (not e!397325))))

(assert (=> b!701596 (= res!465600 (not (contains!3839 newAcc!49 #b1000000000000000000000000000000000000000000000000000000000000000)))))

(declare-fun b!701597 () Bool)

(assert (=> b!701597 (= e!397325 e!397327)))

(declare-fun res!465588 () Bool)

(assert (=> b!701597 (=> (not res!465588) (not e!397327))))

(assert (=> b!701597 (= res!465588 (bvsge (bvadd #b00000000000000000000000000000001 from!2969) #b00000000000000000000000000000000))))

(declare-fun $colon$colon!480 (List!13296 (_ BitVec 64)) List!13296)

(assert (=> b!701597 (= lt!317577 ($colon$colon!480 newAcc!49 (select (arr!19202 a!3591) from!2969)))))

(declare-fun lt!317576 () List!13296)

(assert (=> b!701597 (= lt!317576 ($colon$colon!480 acc!652 (select (arr!19202 a!3591) from!2969)))))

(declare-fun b!701598 () Bool)

(declare-fun res!465583 () Bool)

(assert (=> b!701598 (=> (not res!465583) (not e!397325))))

(declare-fun noDuplicate!1086 (List!13296) Bool)

(assert (=> b!701598 (= res!465583 (noDuplicate!1086 newAcc!49))))

(declare-fun b!701599 () Bool)

(declare-fun res!465599 () Bool)

(assert (=> b!701599 (=> (not res!465599) (not e!397325))))

(declare-fun arrayNoDuplicates!0 (array!40099 (_ BitVec 32) List!13296) Bool)

(assert (=> b!701599 (= res!465599 (arrayNoDuplicates!0 a!3591 from!2969 acc!652))))

(declare-fun b!701600 () Bool)

(declare-fun res!465575 () Bool)

(assert (=> b!701600 (=> (not res!465575) (not e!397327))))

(declare-fun -!248 (List!13296 (_ BitVec 64)) List!13296)

(assert (=> b!701600 (= res!465575 (= (-!248 lt!317577 k!2824) lt!317576))))

(declare-fun b!701601 () Bool)

(declare-fun res!465576 () Bool)

(assert (=> b!701601 (=> (not res!465576) (not e!397325))))

(declare-fun subseq!283 (List!13296 List!13296) Bool)

(assert (=> b!701601 (= res!465576 (subseq!283 acc!652 newAcc!49))))

(declare-fun b!701602 () Bool)

(declare-fun res!465591 () Bool)

(assert (=> b!701602 (=> (not res!465591) (not e!397327))))

(assert (=> b!701602 (= res!465591 (not (contains!3839 lt!317577 #b0000000000000000000000000000000000000000000000000000000000000000)))))

(declare-fun b!701603 () Bool)

(declare-fun res!465585 () Bool)

(assert (=> b!701603 (=> (not res!465585) (not e!397327))))

(assert (=> b!701603 (= res!465585 (not (contains!3839 lt!317576 #b1000000000000000000000000000000000000000000000000000000000000000)))))

(declare-fun b!701604 () Bool)

(declare-fun res!465602 () Bool)

(assert (=> b!701604 (=> (not res!465602) (not e!397327))))

(assert (=> b!701604 (= res!465602 (not (contains!3839 lt!317576 #b0000000000000000000000000000000000000000000000000000000000000000)))))

(declare-fun b!701605 () Bool)

(declare-fun res!465580 () Bool)

(assert (=> b!701605 (=> (not res!465580) (not e!397325))))

(declare-fun arrayContainsKey!0 (array!40099 (_ BitVec 64) (_ BitVec 32)) Bool)

(assert (=> b!701605 (= res!465580 (not (arrayContainsKey!0 a!3591 k!2824 from!2969)))))

(declare-fun b!701607 () Bool)

(declare-fun res!465597 () Bool)

(assert (=> b!701607 (=> (not res!465597) (not e!397325))))

(assert (=> b!701607 (= res!465597 (validKeyInArray!0 k!2824))))

(declare-fun b!701608 () Bool)

(declare-fun res!465586 () Bool)

(assert (=> b!701608 (=> (not res!465586) (not e!397325))))

(assert (=> b!701608 (= res!465586 (contains!3839 newAcc!49 k!2824))))

(declare-fun b!701609 () Bool)

(declare-fun res!465584 () Bool)

(assert (=> b!701609 (=> (not res!465584) (not e!397325))))

(assert (=> b!701609 (= res!465584 (noDuplicate!1086 acc!652))))

(declare-fun b!701610 () Bool)

(declare-fun res!465577 () Bool)

(assert (=> b!701610 (=> (not res!465577) (not e!397327))))

(assert (=> b!701610 (= res!465577 (noDuplicate!1086 lt!317577))))

(declare-fun b!701611 () Bool)

(declare-fun res!465601 () Bool)

(assert (=> b!701611 (=> (not res!465601) (not e!397325))))

(assert (=> b!701611 (= res!465601 (= (-!248 newAcc!49 k!2824) acc!652))))

(declare-fun b!701612 () Bool)

(declare-fun res!465578 () Bool)

(assert (=> b!701612 (=> (not res!465578) (not e!397327))))

(assert (=> b!701612 (= res!465578 (noDuplicate!1086 lt!317576))))

(declare-fun b!701613 () Bool)

(declare-fun res!465593 () Bool)

(assert (=> b!701613 (=> (not res!465593) (not e!397325))))

(assert (=> b!701613 (= res!465593 (not (contains!3839 acc!652 #b0000000000000000000000000000000000000000000000000000000000000000)))))

(declare-fun b!701614 () Bool)

(declare-fun res!465596 () Bool)

(assert (=> b!701614 (=> (not res!465596) (not e!397325))))

(assert (=> b!701614 (= res!465596 (bvslt (bvadd #b00000000000000000000000000000001 from!2969) (size!19585 a!3591)))))

(declare-fun b!701615 () Bool)

(declare-fun res!465594 () Bool)

(assert (=> b!701615 (=> (not res!465594) (not e!397327))))

(assert (=> b!701615 (= res!465594 (subseq!283 lt!317576 lt!317577))))

(declare-fun b!701616 () Bool)

(declare-fun res!465587 () Bool)

(assert (=> b!701616 (=> (not res!465587) (not e!397327))))

(assert (=> b!701616 (= res!465587 (not (arrayContainsKey!0 a!3591 k!2824 (bvadd #b00000000000000000000000000000001 from!2969))))))

(declare-fun b!701617 () Bool)

(declare-fun res!465582 () Bool)

(assert (=> b!701617 (=> (not res!465582) (not e!397327))))

(assert (=> b!701617 (= res!465582 (arrayNoDuplicates!0 a!3591 (bvadd #b00000000000000000000000000000001 from!2969) lt!317576))))

(declare-fun b!701618 () Bool)

(declare-fun res!465579 () Bool)

(assert (=> b!701618 (=> (not res!465579) (not e!397325))))

(assert (=> b!701618 (= res!465579 (not (contains!3839 acc!652 k!2824)))))

(declare-fun res!465590 () Bool)

(assert (=> start!62464 (=> (not res!465590) (not e!397325))))

(assert (=> start!62464 (= res!465590 (and (bvslt (size!19585 a!3591) #b01111111111111111111111111111111) (bvsge from!2969 #b00000000000000000000000000000000) (bvslt from!2969 (size!19585 a!3591))))))

(assert (=> start!62464 e!397325))

(assert (=> start!62464 true))

(declare-fun array_inv!14976 (array!40099) Bool)

(assert (=> start!62464 (array_inv!14976 a!3591)))

(declare-fun b!701606 () Bool)

(declare-fun res!465581 () Bool)

(assert (=> b!701606 (=> (not res!465581) (not e!397327))))

(assert (=> b!701606 (= res!465581 (not (contains!3839 lt!317576 k!2824)))))

(assert (= (and start!62464 res!465590) b!701609))

(assert (= (and b!701609 res!465584) b!701598))

(assert (= (and b!701598 res!465583) b!701613))

(assert (= (and b!701613 res!465593) b!701594))

(assert (= (and b!701594 res!465589) b!701605))

(assert (= (and b!701605 res!465580) b!701618))

(assert (= (and b!701618 res!465579) b!701607))

(assert (= (and b!701607 res!465597) b!701599))

(assert (= (and b!701599 res!465599) b!701601))

(assert (= (and b!701601 res!465576) b!701608))

(assert (= (and b!701608 res!465586) b!701611))

(assert (= (and b!701611 res!465601) b!701591))

(assert (= (and b!701591 res!465595) b!701596))

(assert (= (and b!701596 res!465600) b!701614))

(assert (= (and b!701614 res!465596) b!701595))

(assert (= (and b!701595 res!465598) b!701597))

(assert (= (and b!701597 res!465588) b!701612))

(assert (= (and b!701612 res!465578) b!701610))

(assert (= (and b!701610 res!465577) b!701604))

(assert (= (and b!701604 res!465602) b!701603))

(assert (= (and b!701603 res!465585) b!701616))

(assert (= (and b!701616 res!465587) b!701606))

(assert (= (and b!701606 res!465581) b!701617))

(assert (= (and b!701617 res!465582) b!701615))

(assert (= (and b!701615 res!465594) b!701593))

(assert (= (and b!701593 res!465592) b!701600))

(assert (= (and b!701600 res!465575) b!701602))

(assert (= (and b!701602 res!465591) b!701592))

(declare-fun m!660951 () Bool)

(assert (=> start!62464 m!660951))

(declare-fun m!660953 () Bool)

(assert (=> b!701609 m!660953))

(declare-fun m!660955 () Bool)

(assert (=> b!701601 m!660955))

(declare-fun m!660957 () Bool)

(assert (=> b!701603 m!660957))

(declare-fun m!660959 () Bool)

(assert (=> b!701612 m!660959))

(declare-fun m!660961 () Bool)

(assert (=> b!701602 m!660961))

(declare-fun m!660963 () Bool)

(assert (=> b!701599 m!660963))

(declare-fun m!660965 () Bool)

(assert (=> b!701615 m!660965))

(declare-fun m!660967 () Bool)

(assert (=> b!701592 m!660967))

(declare-fun m!660969 () Bool)

(assert (=> b!701613 m!660969))

(declare-fun m!660971 () Bool)

(assert (=> b!701611 m!660971))

(declare-fun m!660973 () Bool)

(assert (=> b!701605 m!660973))

(declare-fun m!660975 () Bool)

(assert (=> b!701607 m!660975))

(declare-fun m!660977 () Bool)

(assert (=> b!701604 m!660977))

(declare-fun m!660979 () Bool)

(assert (=> b!701595 m!660979))

(assert (=> b!701595 m!660979))

(declare-fun m!660981 () Bool)

(assert (=> b!701595 m!660981))

(declare-fun m!660983 () Bool)

(assert (=> b!701618 m!660983))

(declare-fun m!660985 () Bool)

(assert (=> b!701596 m!660985))

(declare-fun m!660987 () Bool)

(assert (=> b!701616 m!660987))

(declare-fun m!660989 () Bool)

(assert (=> b!701608 m!660989))

(declare-fun m!660991 () Bool)

(assert (=> b!701617 m!660991))

(declare-fun m!660993 () Bool)

(assert (=> b!701593 m!660993))

(assert (=> b!701597 m!660979))

(assert (=> b!701597 m!660979))

(declare-fun m!660995 () Bool)

(assert (=> b!701597 m!660995))

(assert (=> b!701597 m!660979))

(declare-fun m!660997 () Bool)

(assert (=> b!701597 m!660997))

(declare-fun m!660999 () Bool)

(assert (=> b!701606 m!660999))

(declare-fun m!661001 () Bool)

(assert (=> b!701591 m!661001))

(declare-fun m!661003 () Bool)

(assert (=> b!701598 m!661003))

(declare-fun m!661005 () Bool)

(assert (=> b!701610 m!661005))

(declare-fun m!661007 () Bool)

(assert (=> b!701594 m!661007))

(declare-fun m!661009 () Bool)

(assert (=> b!701600 m!661009))

(push 1)

